(declare-fun $ccr$0 () Bool)
(declare-fun $V83_cca$3 () Bool)
(declare-fun $OK$3 () Bool)
(declare-fun $ccsetd$0 () Bool)
(declare-fun $ccsetd$1 () Bool)
(declare-fun $ccseti$0 () Bool)
(declare-fun $ccr$1 () Bool)
(declare-fun $ccseti$1 () Bool)

(assert (let ((a!1 (or (ite false false (and $ccseti$1 (not $ccseti$0)))
               (ite false false (and $ccsetd$1 (not $ccsetd$0)))
               (ite false false (and $ccr$1 (not $ccr$0))))))
  (and (= $OK$3 (ite false a!1 true)) (= $V83_cca$3 false))))
(check-sat)
